Maximize

27.5 b0 + 22.5 b1 + 45.5 b2 + 41.0 b3 + 8 b4 + 10 b5 + 38.0 b6 + 41.0 b7 + 8 b8 + 10 b9 + 86.5 b10 + 216.5 b11 + 63.0 b12 + 53.5 b13.v0 + 51.5 b13.v1 + 19.5 b14 + 503.5 b15 + 82.5 b16 + 424.0 b17.v0 + 424.0 b17.v1 + 50.5 b18 + 123.5 b19.v0 + 121.5 b19.v1 + 131.0 b20 + 37.0 b21.v0 + 35.0 b21.v1 + 6 b22 + 8 b23 + 10 b24 + 18.5 b25 + 8 b26 + 10 b27 + 157.0 b28 + 153.0 b29 + 55.5 b30 + 208.0 b31.v0 + 208.0 b31.v1 + 6 b32 + 8 b33 + 10 b34


Subject to

\ === tcfg constraints ===
dSta_0 = 1
b0 - dSta_0 = 0
b0 - d0_1 = 0
b1 - d0_1 = 0
b1 - d1_2 = 0
b2 - d1_2 = 0
b2 - d2_6 - d2_3 = 0
b3 - d2_3 = 0
b3 - d3_4 = 0
b4 - d3_4 = 0
b4 - d4_5 = 0
b5 - d4_5 = 0
b6 - d2_6 = 0
b6 - d6_10 - d6_7 = 0
b7 - d6_7 = 0
b7 - d7_8 = 0
b8 - d7_8 = 0
b8 - d8_9 = 0
b9 - d8_9 = 0
b10 - d6_10 = 0
b10 - d10_28 - d10_11 = 0
b11 - d10_11 = 0
b11 - d11_13 - d11_12 = 0
b12 - d11_12 = 0
b12 - d12_13 = 0
b13 - d11_13 - d12_13 = 0
b13 - d13_25 - d13_14 = 0
b14 - d13_14 = 0
b14 - d14_15 = 0
b15 - d14_15 = 0
b15 - d15_17 - d15_16 = 0
b16 - d15_16 = 0
b16 - d16_17 = 0
b17 - d15_17 - d16_17 = 0
b17 - d17_19 - d17_18 = 0
b18 - d17_18 = 0
b18 - d18_19 = 0
b19 - d17_19 - d18_19 = 0
b19 - d19_21 - d19_20 = 0
b20 - d19_20 = 0
b20 - d20_21 = 0
b21 - d19_21 - d20_21 = 0
b21 - d21_22 = 0
b22 - d21_22 = 0
b22 - d22_23 = 0
b23 - d22_23 = 0
b23 - d23_24 = 0
b24 - d23_24 = 0
b25 - d13_25 = 0
b25 - d25_26 = 0
b26 - d25_26 = 0
b26 - d26_27 = 0
b27 - d26_27 = 0
b28 - d10_28 = 0
b28 - d28_29 = 0
b29 - d28_29 = 0
b29 - d29_31 - d29_30 = 0
b30 - d29_30 = 0
b30 - d30_31 = 0
b31 - d29_31 - d30_31 = 0
b31 - d31_32 = 0
b32 - d31_32 = 0
b32 - d32_33 = 0
b33 - d32_33 = 0
b33 - d33_34 = 0
b34 - d33_34 = 0


\ === header constraints ===



\ === context constraints ===
b13 - b13.v0 - b13.v1 = 0
b13.v0 - d11_13 = 0
b13.v1 - d12_13 = 0
b17 - b17.v0 - b17.v1 = 0
b17.v0 - d15_17 = 0
b17.v1 - d16_17 = 0
b19 - b19.v0 - b19.v1 = 0
b19.v0 - d17_19 = 0
b19.v1 - d18_19 = 0
b21 - b21.v0 - b21.v1 = 0
b21.v0 - d19_21 = 0
b21.v1 - d20_21 = 0
b31 - b31.v0 - b31.v1 = 0
b31.v0 - d29_31 = 0
b31.v1 - d30_31 = 0


\ === inst cache constraints ===



\ === data cache constraints ===



Generals


b0
b1
b2
b3
b4
b5
b6
b7
b8
b9
b10
b11
b12
b13
b13.v0
b13.v1
b14
b15
b16
b17
b17.v0
b17.v1
b18
b19
b19.v0
b19.v1
b20
b21
b21.v0
b21.v1
b22
b23
b24
b25
b26
b27
b28
b29
b30
b31
b31.v0
b31.v1
b32
b33
b34
d0_1
d1_2
d2_3
d2_6
d3_4
d4_5
d6_7
d6_10
d7_8
d8_9
d10_11
d10_28
d11_12
d11_13
d12_13
d13_14
d13_25
d14_15
d15_16
d15_17
d16_17
d17_18
d17_19
d18_19
d19_20
d19_21
d20_21
d21_22
d22_23
d23_24
d25_26
d26_27
d28_29
d29_30
d29_31
d30_31
d31_32
d32_33
d33_34
dSta_0


End
\ total cons: 96    total vars: 85
